41 13 686
13 19 1784
19 48 897
48 17 415
17 23 619
23 21 176
21 29 516
29 22 544
22 10 117
10 9 803
9 12 723
12 14 816
14 16 907
16 39 451
39 46 214
46 36 402
36 15 679
15 25 1148
25 31 299
31 27 4460
27 1 4123
1 33 7621
33 11 4928
11 45 436
45 52 722
52 2 598
2 42 1722
42 18 2089
18 4 606
4 30 380
30 47 944
47 54 491
54 34 401
34 53 396
53 49 1489
49 26 560
26 55 397
55 28 487
28 6 404
6 3 385
3 43 1096
43 40 1279
40 51 1042
51 7 770
7 37 517
37 5 467
5 35 323
35 20 810
20 50 763
50 24 868
24 38 802
38 8 368
8 44 383
44 32 676
32 41 362
